
Gurobi 6.0.4 (mac64) logging started Thu Mar 24 17:21:10 2016


Gurobi 6.0.4 (mac64) logging started Thu Mar 24 17:22:11 2016


Gurobi 6.0.4 (mac64) logging started Thu Mar 24 21:05:33 2016


Gurobi 6.0.4 (mac64) logging started Thu Mar 24 21:15:17 2016


Gurobi 6.0.4 (mac64) logging started Thu Mar 24 21:23:19 2016


Gurobi 6.0.4 (mac64) logging started Thu Mar 24 21:24:38 2016


Gurobi 6.0.4 (mac64) logging started Thu Mar 24 21:24:47 2016


Gurobi 6.0.4 (mac64) logging started Thu Mar 24 21:24:53 2016


Gurobi 6.0.4 (mac64) logging started Thu Mar 24 21:25:05 2016


Gurobi 6.0.4 (mac64) logging started Thu Mar 24 21:25:13 2016


Gurobi 6.0.4 (mac64) logging started Thu Mar 24 21:25:59 2016


Gurobi 6.0.4 (mac64) logging started Thu Mar 24 21:31:20 2016


Gurobi 6.0.4 (mac64) logging started Thu Mar 24 22:00:47 2016


Gurobi 6.0.4 (mac64) logging started Thu Mar 24 22:01:49 2016


Gurobi 6.0.4 (mac64) logging started Tue Mar 29 21:16:05 2016


Gurobi 6.0.4 (mac64) logging started Tue Mar 29 21:16:19 2016


Gurobi 6.0.4 (mac64) logging started Tue Mar 29 21:16:31 2016


Gurobi 6.0.4 (mac64) logging started Tue Mar 29 21:16:45 2016


Gurobi 6.0.4 (mac64) logging started Tue Mar 29 21:16:58 2016


Gurobi 6.0.4 (mac64) logging started Tue Mar 29 21:27:43 2016


Gurobi 6.0.4 (mac64) logging started Tue Mar 29 21:28:04 2016


Gurobi 6.0.4 (mac64) logging started Tue Mar 29 22:55:38 2016


Gurobi 6.0.4 (mac64) logging started Tue Mar 29 22:55:53 2016


Gurobi 6.0.4 (mac64) logging started Tue Mar 29 22:57:49 2016


Gurobi 6.0.4 (mac64) logging started Tue Mar 29 22:58:00 2016


Gurobi 6.0.4 (mac64) logging started Tue Mar 29 22:58:09 2016


Gurobi 6.0.4 (mac64) logging started Tue Mar 29 23:02:12 2016


Gurobi 6.0.4 (mac64) logging started Tue Mar 29 23:02:40 2016


Gurobi 6.0.4 (mac64) logging started Tue Mar 29 23:02:54 2016


Gurobi 6.0.4 (mac64) logging started Tue Mar 29 23:03:18 2016


Gurobi 6.0.4 (mac64) logging started Tue Mar 29 23:03:41 2016


Gurobi 6.0.4 (mac64) logging started Tue Mar 29 23:04:56 2016


Gurobi 6.0.4 (mac64) logging started Tue Mar 29 23:05:32 2016


Gurobi 6.0.4 (mac64) logging started Tue Mar 29 23:06:16 2016


Gurobi 6.0.4 (mac64) logging started Tue Mar 29 23:07:14 2016


Gurobi 6.0.4 (mac64) logging started Tue Mar 29 23:09:04 2016


Gurobi 6.0.4 (mac64) logging started Tue Mar 29 23:10:03 2016


Gurobi 6.0.4 (mac64) logging started Tue Mar 29 23:10:52 2016


Gurobi 6.0.4 (mac64) logging started Tue Mar 29 23:11:21 2016


Gurobi 6.0.4 (mac64) logging started Tue Mar 29 23:12:05 2016


Gurobi 6.0.4 (mac64) logging started Tue Mar 29 23:12:22 2016


Gurobi 6.0.4 (mac64) logging started Tue Mar 29 23:12:31 2016


Gurobi 6.0.4 (mac64) logging started Tue Mar 29 23:29:19 2016


Gurobi 6.0.4 (mac64) logging started Tue Mar 29 23:32:05 2016


Gurobi 6.0.4 (mac64) logging started Tue Mar 29 23:32:19 2016


Gurobi 6.0.4 (mac64) logging started Tue Mar 29 23:33:22 2016


Gurobi 6.0.4 (mac64) logging started Tue Mar 29 23:33:34 2016


Gurobi 6.0.4 (mac64) logging started Tue Mar 29 23:34:43 2016


Gurobi 6.0.4 (mac64) logging started Tue Mar 29 23:36:11 2016


Gurobi 6.0.4 (mac64) logging started Tue Mar 29 23:36:20 2016


Gurobi 6.0.4 (mac64) logging started Tue Mar 29 23:36:44 2016


Gurobi 6.0.4 (mac64) logging started Tue Mar 29 23:37:25 2016


Gurobi 6.0.4 (mac64) logging started Tue Mar 29 23:37:52 2016


Gurobi 6.0.4 (mac64) logging started Tue Mar 29 23:38:10 2016


Gurobi 6.0.4 (mac64) logging started Tue Mar 29 23:38:29 2016


Gurobi 6.0.4 (mac64) logging started Tue Mar 29 23:38:56 2016


Gurobi 6.0.4 (mac64) logging started Tue Mar 29 23:39:04 2016


Gurobi 6.0.4 (mac64) logging started Tue Mar 29 23:39:27 2016


Gurobi 6.0.4 (mac64) logging started Tue Mar 29 23:39:43 2016

